#######################################
### Exact MIP solver for the HHCRSP ###
#######################################
-- Instance file: new-instances/HHCRSP_75_15_79_1.6_R_RC.txt
-- Max threads: 4
-- Time limit: 999999 seconds
-- Use initial solution: No
Trivial flow violations prevented generating 20556 variables.
Model exported.
Version identifier: 20.1.0.0 | 2020-11-10 | 9bedb6d68
CPXPARAM_Threads                                 4
CPXPARAM_TimeLimit                               999999
Parallel mode: deterministic, using up to 4 threads for concurrent optimization:
 * Starting dual Simplex on 1 thread...
 * Starting Barrier on 3 threads...
Tried aggregator 1 time.
LP Presolve eliminated 3246 rows and 753 columns.
Reduced LP has 23730 rows, 22818 columns, and 239023 nonzeros.
Presolve time = 0.11 sec. (65.65 ticks)
Symmetry aggregator did 19474 additional substitutions.

Iteration log . . .
Iteration:     1   Dual objective     =             0.000000
Iteration:   373   Dual objective     =           157.000000

Dual crossover.
  Dual:  Fixing 206 variables.
      205 DMoves:  Infeasibility  3.71924713e-14  Objective  1.57666667e+02
        0 DMoves:  Infeasibility  2.47579734e-14  Objective  1.57666667e+02
  Dual:  Pushed 4, exchanged 202.
  Primal:  Fixing 42 variables.
       41 PMoves:  Infeasibility  1.11022302e-16  Objective  1.57666667e+02
        0 PMoves:  Infeasibility  1.11022302e-16  Objective  1.57666667e+02
  Primal:  Pushed 3, exchanged 39.

Dual simplex solved model.


Solution status from MIP model:
-- Processing time: 0.194 sec.
-- Memory used: 84.625 MB
-- Best bound: inf
-- Obj value: 157.667
-- Gap: inf%
-- Total distance: 473
-- Total tardiness: 0
-- Largest tardiness: 0
